p edge 44 164
v 1 309
v 2 207
v 3 95
v 4 60
v 5 309
v 6 450
v 7 205
v 8 210
v 9 80
v 10 400
v 11 170
v 12 90
v 13 70
v 14 184
v 15 235
v 16 280
v 17 345
v 18 400
v 19 175
v 20 160
v 21 255
v 22 450
v 23 170
v 24 175
v 25 260
v 26 410
v 27 95
v 28 90
v 29 280
v 30 160
v 31 260
v 32 205
v 33 180
v 34 125
v 35 145
v 36 80
v 37 70
v 38 345
v 39 85
v 40 30
v 41 210
v 42 255
v 43 240
v 44 85
e 1 2
e 1 3
e 1 4
e 1 9
e 1 14
e 1 22
e 1 32
e 1 41
e 2 3
e 2 4
e 2 10
e 2 24
e 2 42
e 3 4
e 3 12
e 3 16
e 3 20
e 3 25
e 3 31
e 3 43
e 4 13
e 4 17
e 4 26
e 4 34
e 4 44
e 5 6
e 5 7
e 5 8
e 5 27
e 5 36
e 5 40
e 6 7
e 6 8
e 6 11
e 6 19
e 6 30
e 7 8
e 8 21
e 8 35
e 8 39
e 9 10
e 9 11
e 9 12
e 9 13
e 9 14
e 9 22
e 9 32
e 9 41
e 10 11
e 10 12
e 10 13
e 10 24
e 10 42
e 11 12
e 11 13
e 11 19
e 11 30
e 12 13
e 12 16
e 12 20
e 12 25
e 12 31
e 12 43
e 13 17
e 13 26
e 13 34
e 13 44
e 14 15
e 14 16
e 14 17
e 14 22
e 14 32
e 14 41
e 15 16
e 15 17
e 15 18
e 15 23
e 15 28
e 15 37
e 16 17
e 16 20
e 16 25
e 16 31
e 16 43
e 17 26
e 17 34
e 17 44
e 18 19
e 18 20
e 18 21
e 18 23
e 18 28
e 18 37
e 19 20
e 19 21
e 19 30
e 20 21
e 20 25
e 20 31
e 20 43
e 21 35
e 21 39
e 22 23
e 22 24
e 22 25
e 22 26
e 22 32
e 22 41
e 23 24
e 23 25
e 23 26
e 23 28
e 23 37
e 24 25
e 24 26
e 24 42
e 25 26
e 25 31
e 25 43
e 26 34
e 26 44
e 27 28
e 27 29
e 27 30
e 27 31
e 27 36
e 27 40
e 28 29
e 28 30
e 28 31
e 28 37
e 29 30
e 29 31
e 29 33
e 29 38
e 30 31
e 31 43
e 32 33
e 32 34
e 32 35
e 32 41
e 33 34
e 33 35
e 33 38
e 34 35
e 34 44
e 35 39
e 36 37
e 36 38
e 36 39
e 36 40
e 37 38
e 37 39
e 38 39
e 40 41
e 40 42
e 40 43
e 40 44
e 41 42
e 41 43
e 41 44
e 42 43
e 42 44
e 43 44
